(set-logic BV)
(declare-fun _substvar_1278_ () Bool)
(declare-fun _substvar_1546_ () Bool)
(declare-fun _substvar_1569_ () Bool)
(declare-fun _substvar_1624_ () Bool)
(declare-fun _substvar_1671_ () Bool)
(declare-fun _substvar_1688_ () Bool)
(declare-fun _substvar_1702_ () Bool)
(declare-fun _substvar_1722_ () Bool)
(declare-fun _substvar_1749_ () Bool)
(declare-fun _substvar_1752_ () Bool)
(declare-fun _substvar_1767_ () Bool)
(declare-fun _substvar_1781_ () Bool)
(declare-fun _substvar_1794_ () Bool)
(declare-fun _substvar_1819_ () Bool)
(declare-fun _substvar_1822_ () (_ BitVec 32))
(declare-fun x1 () (_ BitVec 32))
(assert (or (exists ((?y1 (_ BitVec 32))) (forall ((?y2 (_ BitVec 32))) (forall ((?y3 (_ BitVec 32))) (or (and (bvslt (bvadd (bvadd (bvmul (_ bv22 32) ?y2) (bvmul (_ bv6 32) ?y1)) (bvmul (_ bv46 32) x1)) (_ bv0 32)) (bvsle (bvadd (bvadd (bvmul (_ bv27 32) ?y2) (bvmul (bvneg (_ bv60 32)) ?y1)) (bvmul (_ bv43 32) x1)) (_ bv6 32))) (not (= (bvadd ?y2 _substvar_1822_) (_ bv6 32))))))) (or (and (or (or (exists ((?y2 (_ BitVec 32))) (exists ((?y3 (_ BitVec 32))) (forall ((?y4 (_ BitVec 32))) _substvar_1749_))) (and (forall ((?y2 (_ BitVec 32))) (forall ((?y3 (_ BitVec 32))) _substvar_1781_)) (or (exists ((?y2 (_ BitVec 32))) (forall ((?y3 (_ BitVec 32))) _substvar_1624_)) (forall ((?y2 (_ BitVec 32))) _substvar_1819_)))) (forall ((?y2 (_ BitVec 32))) (exists ((?y3 (_ BitVec 32))) (exists ((?y4 (_ BitVec 32))) _substvar_1794_)))) (exists ((?y2 (_ BitVec 32))) (exists ((?y3 (_ BitVec 32))) (forall ((?y4 (_ BitVec 32))) _substvar_1767_)))) (and (exists ((?y1 (_ BitVec 32))) (exists ((?y2 (_ BitVec 32))) (or (and (or (exists ((?y4 (_ BitVec 32))) _substvar_1688_) (forall ((?y4 (_ BitVec 32))) _substvar_1278_)) (and (forall ((?y3 (_ BitVec 32))) _substvar_1546_) (forall ((?y3 (_ BitVec 32))) _substvar_1752_))) (forall ((?y4 (_ BitVec 32))) _substvar_1671_)))) (exists ((?y1 (_ BitVec 32))) (or (exists ((?y2 (_ BitVec 32))) (exists ((?y4 (_ BitVec 32))) _substvar_1702_)) (exists ((?y2 (_ BitVec 32))) (and (forall ((?y3 (_ BitVec 32))) _substvar_1569_) (forall ((?y3 (_ BitVec 32))) (exists ((?y4 (_ BitVec 32))) _substvar_1722_))))))))))
(check-sat)
(exit)
